CapLotSizing_PM/src/Instancias/NCHSHT/6i12p4m/NBA02.OUT
 CG ITER, OVMR, OVMRUB =           1   31271.0625000   21581.8906250
 CG ITER, OVMR, OVMRUB =           2   22564.8066406   21581.8906250
 CG ITER, OVMR, OVMRUB =           3   22564.8066406   21581.8906250
 CG ITER, OVMR, OVMRUB =           4   22564.8066406   21581.8906250
 CG ITER, OVMR, OVMRUB =           5   22564.8066406   21581.8906250
 CG ITER, OVMR, OVMRUB =           6   22564.8066406   21581.8906250
 CG ITER, OVMR, OVMRUB =           7   22564.8066406   21581.8906250
 CG ITER, OVMR, OVMRUB =           8   22564.8066406   21581.8906250
 CG ITER, OVMR, OVMRUB =           9   22564.8066406   21581.8906250
 CG ITER, OVMR, OVMRUB =          10   22564.8066406   21581.8906250
OVLB =   22564.8066406 OVLUB =   21581.8906250 TIME =       0.3300000
